1000
[150,151,152,153,154,155,157,158,159,160,161,162,163,164,165,166,167,168,169,170,171,172,173,174,175,176,177,178,179,180,182,183,184,185,187,188,189,190,191,193,194,195,197,198,199,200]
[4,4,1,8,1,4,1,1,2,1,3,2,2,3,2,1,1,3,1,4,5,5,2,1,4,6,2,5,1,1,3,2,1,4,3,3,1,4,1,2,2,3,3,2,1,4]
